Gurobi Optimizer version 9.1.0 build v9.1.0rc0 (linux64)
Thread count: 8 physical cores, 16 logical processors, using up to 16 threads
Optimize a model with 312174 rows, 301200 columns and 1752950 nonzeros
Model fingerprint: 0xc55c93a6
Variable types: 0 continuous, 301200 integer (301200 binary)
Coefficient statistics:
  Matrix range     [1e+00, 1e+00]
  Objective range  [1e+01, 5e+04]
  Bounds range     [1e+00, 1e+00]
  RHS range        [1e+00, 5e+02]
Presolve removed 50 rows and 50 columns (presolve time = 5s) ...
Presolve added 0 rows and 4950 columns
Presolve removed 50 rows and 0 columns
Presolve time: 7.98s
Presolved: 312124 rows, 306150 columns, 1267850 nonzeros
Variable types: 0 continuous, 306150 integer (306150 binary)
Found heuristic solution: objective 532400.00000

Concurrent LP optimizer: primal simplex, dual simplex, and barrier
Showing barrier log only...

Root barrier log...

Ordering time: 0.10s

Barrier statistics:
 Dense cols : 600
 AA' NZ     : 9.758e+05
 Factor NZ  : 6.535e+06 (roughly 300 MBytes of memory)
 Factor Ops : 3.028e+09 (less than 1 second per iteration)
 Threads    : 6

                  Objective                Residual
Iter       Primal          Dual         Primal    Dual     Compl     Time
   0   3.07448462e+08 -4.59403403e+08  4.59e+02 2.86e+01  1.60e+04    14s
   1   1.34819325e+06 -4.63607462e+08  1.60e+00 1.22e+03  5.52e+02    15s
   2   7.55488283e+05 -1.83265302e+08  4.12e-01 4.88e+02  2.06e+02    15s
   3   6.76723753e+05 -1.04672386e+08  2.50e-01 2.74e+02  1.17e+02    16s
   4   5.64587626e+05 -4.07999532e+07  9.31e-03 1.03e+02  4.51e+01    17s
   5   5.52987126e+05 -2.79742303e+06  3.91e-03 9.34e+00  3.65e+00    18s
   6   5.14245079e+05 -2.13827597e+05  2.07e-03 1.43e+00  7.92e-01    18s
   7   4.94609249e+05  1.41687595e+05  1.66e-03 5.16e-01  3.84e-01    19s
   8   4.78156592e+05  2.41084126e+05  1.33e-03 3.08e-01  2.58e-01    20s
   9   4.65889565e+05  2.87834498e+05  1.12e-03 2.07e-01  1.93e-01    21s
  10   4.53715269e+05  3.31844323e+05  9.44e-04 1.11e-01  1.32e-01    22s
  11   4.44467710e+05  3.54210840e+05  8.14e-04 6.31e-02  9.80e-02    23s
  12   4.33726781e+05  3.64457543e+05  6.74e-04 4.13e-02  7.52e-02    25s
  13   4.20394417e+05  3.69864457e+05  5.04e-04 2.99e-02  5.48e-02    26s
  14   4.18775356e+05  3.71897894e+05  4.81e-04 2.57e-02  5.09e-02    27s
  15   4.14976220e+05  3.75439342e+05  4.33e-04 1.84e-02  4.29e-02    29s
  16   4.09304704e+05  3.77382743e+05  3.52e-04 1.44e-02  3.46e-02    30s
  17   4.04356623e+05  3.79164431e+05  2.83e-04 1.09e-02  2.73e-02    31s
  18   3.99844306e+05  3.80426831e+05  2.24e-04 8.51e-03  2.11e-02    33s
  19   3.97359881e+05  3.81461182e+05  1.91e-04 6.57e-03  1.72e-02    34s
  20   3.95185700e+05  3.82173740e+05  1.59e-04 5.28e-03  1.41e-02    35s
  21   3.93771876e+05  3.82702249e+05  1.36e-04 4.33e-03  1.20e-02    36s
  22   3.92608049e+05  3.83260798e+05  1.20e-04 3.34e-03  1.01e-02    36s
  23   3.91478703e+05  3.83675857e+05  1.04e-04 2.64e-03  8.46e-03    37s
  24   3.90108909e+05  3.83994572e+05  8.13e-05 2.24e-03  6.63e-03    38s
  25   3.89107168e+05  3.84244470e+05  6.54e-05 1.81e-03  5.27e-03    39s
  26   3.88577808e+05  3.84440906e+05  5.63e-05 1.46e-03  4.49e-03    40s
  27   3.87923488e+05  3.84640338e+05  4.59e-05 1.14e-03  3.56e-03    41s
  28   3.87516549e+05  3.84847976e+05  3.96e-05 8.04e-04  2.89e-03    42s
  29   3.87191927e+05  3.84910245e+05  3.43e-05 6.95e-04  2.47e-03    43s
  30   3.86851734e+05  3.84949418e+05  2.85e-05 6.28e-04  2.06e-03    44s
  31   3.86623048e+05  3.85000638e+05  2.42e-05 5.42e-04  1.76e-03    45s
  32   3.86411149e+05  3.85052657e+05  2.04e-05 4.56e-04  1.47e-03    46s
  33   3.86145503e+05  3.85093410e+05  1.57e-05 3.91e-04  1.14e-03    47s
  34   3.85975460e+05  3.85122849e+05  1.28e-05 3.43e-04  9.24e-04    48s
  35   3.85923734e+05  3.85191350e+05  1.17e-05 2.59e-04  7.93e-04    49s
  36   3.85872038e+05  3.85205085e+05  1.06e-05 2.34e-04  7.23e-04    50s
  37   3.85807518e+05  3.85217358e+05  9.44e-06 2.13e-04  6.39e-04    50s
  38   3.85746886e+05  3.85229122e+05  8.26e-06 1.89e-04  5.61e-04    51s
  39   3.85680572e+05  3.85245474e+05  6.96e-06 1.61e-04  4.71e-04    53s
  40   3.85625380e+05  3.85253254e+05  5.88e-06 1.50e-04  4.03e-04    53s
  41   3.85600979e+05  3.85273630e+05  5.39e-06 1.18e-04  3.55e-04    54s
  42   3.85563028e+05  3.85280119e+05  4.63e-06 1.07e-04  3.06e-04    55s
  43   3.85543963e+05  3.85288243e+05  4.24e-06 9.36e-05  2.77e-04    56s
  44   3.85496488e+05  3.85292762e+05  3.28e-06 8.61e-05  2.21e-04    57s
  45   3.85479419e+05  3.85310047e+05  2.91e-06 5.88e-05  1.83e-04    58s
  46   3.85469600e+05  3.85314413e+05  2.70e-06 5.11e-05  1.68e-04    59s
  47   3.85451990e+05  3.85318179e+05  2.33e-06 4.48e-05  1.45e-04    60s
  48   3.85438654e+05  3.85321274e+05  2.04e-06 3.99e-05  1.27e-04    61s
  49   3.85424418e+05  3.85326164e+05  1.75e-06 3.25e-05  1.06e-04    62s
  50   3.85409456e+05  3.85330292e+05  1.42e-06 2.53e-05  8.57e-05    63s
  51   3.85400417e+05  3.85333806e+05  1.21e-06 2.10e-05  7.21e-05    63s
  52   3.85390646e+05  3.85336046e+05  9.92e-07 1.67e-05  5.91e-05    64s
  53   3.85381319e+05  3.85337032e+05  7.94e-07 1.51e-05  4.80e-05    65s
  54   3.85375560e+05  3.85339917e+05  6.61e-07 1.07e-05  3.86e-05    66s
  55   3.85370088e+05  3.85341027e+05  5.39e-07 9.93e-06  3.15e-05    67s
  56   3.85365620e+05  3.85342531e+05  4.36e-07 7.39e-06  2.50e-05    68s
  57   3.85361715e+05  3.85343234e+05  3.48e-07 6.16e-06  2.00e-05    68s
  58   3.85359531e+05  3.85343784e+05  3.02e-07 5.33e-06  1.70e-05    69s
  59   3.85356939e+05  3.85344322e+05  2.44e-07 4.31e-06  1.37e-05    70s
  60   3.85356155e+05  3.85344452e+05  2.26e-07 4.08e-06  1.27e-05    71s
  61   3.85354368e+05  3.85345029e+05  1.83e-07 3.03e-06  1.01e-05    72s
  62   3.85352422e+05  3.85345410e+05  1.38e-07 2.36e-06  7.59e-06    73s
  63   3.85350958e+05  3.85345913e+05  1.01e-07 1.89e-06  5.46e-06    74s
  64   3.85350245e+05  3.85346173e+05  8.41e-08 1.33e-06  4.41e-06    75s
  65   3.85349239e+05  3.85346357e+05  5.89e-08 9.22e-07  3.12e-06    75s
  66   3.85348304e+05  3.85346571e+05  3.51e-08 5.12e-07  1.88e-06    76s
  67   3.85347608e+05  3.85346736e+05  1.77e-08 2.12e-07  9.44e-07    77s
  68   3.85347225e+05  3.85346812e+05  8.27e-09 8.56e-08  4.47e-07    78s
  69   3.85347105e+05  3.85346834e+05  5.55e-09 2.32e-07  2.93e-07    78s
  70   3.85346956e+05  3.85346839e+05  2.17e-09 2.79e-07  1.26e-07    79s
  71   3.85346863e+05  3.85346852e+05  1.66e-10 8.87e-08  1.16e-08    79s
  72   3.85346862e+05  3.85346852e+05  2.35e-09 8.63e-08  1.12e-08    80s
  73   3.85346862e+05  3.85346852e+05  7.86e-09 8.60e-08  1.12e-08    81s
  74   3.85346862e+05  3.85346852e+05  4.22e-09 8.60e-08  1.12e-08    82s

Barrier solved model in 74 iterations and 81.54 seconds
Optimal objective 3.85346862e+05


Root crossover log...

  120232 DPushes remaining with DInf 0.0000000e+00                82s
    1396 DPushes remaining with DInf 0.0000000e+00                85s
       0 DPushes remaining with DInf 0.0000000e+00                90s

    2120 PPushes remaining with PInf 1.7544672e-06                90s
     786 PPushes remaining with PInf 0.0000000e+00                90s
       0 PPushes remaining with PInf 0.0000000e+00                90s

  Push phase complete: Pinf 0.0000000e+00, Dinf 1.7190061e-01     91s


Root simplex log...

Iteration    Objective       Primal Inf.    Dual Inf.      Time
   19990    3.8534685e+05   0.000000e+00   1.719006e-01     91s
   19992    3.8534685e+05   0.000000e+00   0.000000e+00     91s
   19992    3.8534685e+05   0.000000e+00   0.000000e+00     91s

Solved with barrier

Root relaxation: objective 3.853469e+05, 19992 iterations, 79.97 seconds

    Nodes    |    Current Node    |     Objective Bounds      |     Work
 Expl Unexpl |  Obj  Depth IntInf | Incumbent    BestBd   Gap | It/Node Time

     0     0 385346.855    0 27341 532400.000 385346.855  27.6%     -   96s
H    0     0                    407935.00000 385346.855  5.54%     -   98s
H    0     0                    407842.00000 385346.855  5.52%     -  100s
H    0     0                    407670.00000 385346.855  5.48%     -  103s
     0     0 385346.855    0 27341 407670.000 385346.855  5.48%     -  137s
H    0     0                    407626.00000 385346.855  5.47%     -  244s
H    0     0                    407493.00000 385346.855  5.43%     -  246s
H    0     2                    407385.00000 385346.855  5.41%     -  263s
     0     2 385346.855    0 27341 407385.000 385346.855  5.41%     -  263s

Explored 1 nodes (31117 simplex iterations) in 300.11 seconds
Thread count was 16 (of 16 available processors)

Solution count 7: 407385 407493 407626 ... 532400

Time limit reached
Best objective 4.073850000000e+05, best bound 3.853470000000e+05, gap 5.4096%

User-callback calls 23311, time in user-callback 0.44 sec
Result: runtime=262.13sec; objective=407385; gap=5.4096%
Solution written to /autofs/unityaccount/cremi/mdeboute/Bureau/multi-period-flp/solution//instSingle_I50_J500_T12_0_result.txt
